
Gurobi 9.1.2 (win64, Java) logging started Sat Nov  6 21:16:57 2021

Academic license - for non-commercial use only - expires 2022-10-30
Gurobi Optimizer version 9.1.2 build v9.1.2rc0 (win64)
Thread count: 6 physical cores, 12 logical processors, using up to 12 threads
Optimize a model with 60 rows, 800 columns and 1600 nonzeros
Model fingerprint: 0x6f5a1da9
Variable types: 0 continuous, 800 integer (800 binary)
Coefficient statistics:
  Matrix range     [1e+00, 1e+03]
  Objective range  [4e+02, 1e+03]
  Bounds range     [1e+00, 1e+00]
  RHS range        [1e+00, 9e+02]
Found heuristic solution: objective 15534.000000
Presolve removed 12 rows and 442 columns
Presolve time: 0.02s
Presolved: 48 rows, 358 columns, 715 nonzeros
Variable types: 0 continuous, 358 integer (358 binary)
Presolve removed 0 rows and 1 columns
Presolved: 48 rows, 357 columns, 713 nonzeros


Root relaxation: objective 2.144682e+04, 217 iterations, 0.00 seconds

    Nodes    |    Current Node    |     Objective Bounds      |     Work
 Expl Unexpl |  Obj  Depth IntInf | Incumbent    BestBd   Gap | It/Node Time

     0     0 21446.8165    0   29 15534.0000 21446.8165  38.1%     -    0s
H    0     0                    18583.000000 21446.8165  15.4%     -    0s
H    0     0                    19170.000000 21446.8165  11.9%     -    0s
H    0     0                    19665.000000 21446.8165  9.06%     -    0s
H    0     0                    19724.000000 21446.8165  8.73%     -    0s
H    0     0                    19981.000000 21446.8165  7.34%     -    0s
     0     0 21189.9711    0   48 19981.0000 21189.9711  6.05%     -    0s
     0     0 21187.6309    0   49 19981.0000 21187.6309  6.04%     -    0s
     0     0 21187.6309    0   49 19981.0000 21187.6309  6.04%     -    0s
H    0     0                    20231.000000 21187.6309  4.73%     -    0s
     0     0 21140.6908    0   64 20231.0000 21140.6908  4.50%     -    0s
     0     0 21140.6429    0   49 20231.0000 21140.6429  4.50%     -    0s
     0     0 21114.3750    0   46 20231.0000 21114.3750  4.37%     -    1s
H    0     0                    20451.000000 21114.3750  3.24%     -    1s
     0     0 21081.3190    0   62 20451.0000 21081.3190  3.08%     -    1s
     0     0 21080.9602    0   64 20451.0000 21080.9602  3.08%     -    1s
H    0     0                    20462.000241 21080.9602  3.02%     -    1s
     0     0 21052.6381    0   62 20462.0002 21052.6381  2.89%     -    1s
     0     0 21050.1184    0   59 20462.0002 21050.1184  2.87%     -    1s
     0     0 21049.9994    0   61 20462.0002 21049.9994  2.87%     -    1s
     0     0 21020.2973    0   54 20462.0002 21020.2973  2.73%     -    2s
     0     0 21017.4423    0   60 20462.0002 21017.4423  2.71%     -    2s
     0     0 21016.5904    0   52 20462.0002 21016.5904  2.71%     -    2s
     0     0 21016.5802    0   52 20462.0002 21016.5802  2.71%     -    2s
H    0     0                    20831.000000 21016.5802  0.89%     -    2s
     0     0 20994.4308    0   28 20831.0000 20994.4308  0.78%     -    2s
H    0     0                    20921.000000 20994.4308  0.35%     -    2s
     0     0 20992.9974    0   31 20921.0000 20992.9974  0.34%     -    2s
     0     0 20992.9974    0   30 20921.0000 20992.9974  0.34%     -    2s
     0     0 20989.7402    0   50 20921.0000 20989.7402  0.33%     -    2s
     0     0 20989.4123    0   40 20921.0000 20989.4123  0.33%     -    2s
     0     0 20988.1397    0   29 20921.0000 20988.1397  0.32%     -    2s
     0     0 20987.6425    0   29 20921.0000 20987.6425  0.32%     -    2s
     0     0 20987.5049    0   31 20921.0000 20987.5049  0.32%     -    2s
     0     0 20987.2605    0   25 20921.0000 20987.2605  0.32%     -    2s
     0     0 20987.1769    0   25 20921.0000 20987.1769  0.32%     -    2s
     0     0 20987.1366    0   27 20921.0000 20987.1366  0.32%     -    2s
     0     0 20983.5848    0   25 20921.0000 20983.5848  0.30%     -    2s
     0     0 20983.5848    0   24 20921.0000 20983.5848  0.30%     -    2s
H    0     0                    20973.000000 20983.5848  0.05%     -    2s
     0     0 20983.5848    0   11 20973.0000 20983.5848  0.05%     -    2s
     0     0     cutoff    0      20973.0000 20973.0000  0.00%     -    3s

Cutting planes:
  Gomory: 7
  Cover: 6
  Clique: 5
  MIR: 14
  StrongCG: 16

Explored 1 nodes (1727 simplex iterations) in 3.05 seconds
Thread count was 12 (of 12 available processors)

Solution count 10: 20973 20921 20831 ... 19170

Optimal solution found (tolerance 1.00e-04)
Best objective 2.097300000000e+04, best bound 2.097300000000e+04, gap 0.0000%
